(set-logic QF_S)
(declare-fun var_0xINPUT_169012 () String)
(assert (and (= (len var_0xINPUT_169012) 0) (= (len var_0xINPUT_169012) 0) (not (= var_0xINPUT_169012 "Example:")) (= (len var_0xINPUT_169012) 0) (not (= var_0xINPUT_169012 "AA1ND6MEXd"))))
(check-sat var_0xINPUT_169012)